sat
(:max-memory         18.42
 :memory             18.33
 :nlsat-arith-var    3
 :nlsat-atoms        9
 :nlsat-bool-var     1
 :nlsat-clauses      9
 :nlsat-propagations 9
 :nlsat-stages       4
 :num-allocs         50563
 :rlimit-count       1161
 :time               0.00
 :total-time         0.01)
